sat
(:max-memory         18.15
 :memory             18.05
 :nlsat-conflicts    2
 :nlsat-propagations 17
 :nlsat-stages       7
 :num-allocs         34306
 :rlimit-count       3791
 :time               0.00
 :total-time         0.01)
